c FILE /home/rafael/Documents/HappySet/MIHS/inputs/happygen/output/graph_scale_free_k10_p0.4_v50_20241127_082518.txt
c SOURCE This is a scale-free graph formed for the happy graph colouring problem.
c DESCRIPTION It was generated using the problem generator of Rhyd Lewis
c
c GRAPH STATS
c Seed                             = -1773992879
c Number of Nodes                  = 50
c Number of colours k              = 10
c Number of pre-assignments        = 20
c Number of links per new node     = 5
c Density                          = 0.191837
c 
c The degrees of nodes 1 to 50, respectively, are as follows 
c [23, 22, 20, 20, 19, 19, 19, 17, 13, 13, 11, 11, 11, 10, 10, 10, 10, 10, 9, 9, 9, 8, 8, 8, 8, 8, 
c  7, 7, 7, 7, 7, 6, 6, 6, 6, 6, 5, 5, 5, 5, 5, 5, 5, 5, 5, 5, 5, 5, 5, 5] 
c  
p edge 50 235 10
e 1 2
e 1 3
e 1 4
e 1 5
e 1 6
e 1 7
e 1 8
e 1 9
e 1 10
e 1 12
e 1 13
e 1 20
e 1 22
e 1 23
e 1 25
e 1 28
e 1 31
e 1 32
e 1 33
e 1 34
e 1 35
e 1 37
e 1 38
e 2 3
e 2 4
e 2 5
e 2 6
e 2 7
e 2 8
e 2 9
e 2 10
e 2 11
e 2 12
e 2 15
e 2 19
e 2 24
e 2 27
e 2 29
e 2 30
e 2 32
e 2 34
e 2 45
e 2 47
e 2 49
e 3 5
e 3 6
e 3 7
e 3 8
e 3 11
e 3 15
e 3 22
e 3 26
e 3 27
e 3 29
e 3 30
e 3 34
e 3 37
e 3 38
e 3 44
e 3 46
e 3 49
e 3 50
e 4 5
e 4 6
e 4 7
e 4 8
e 4 9
e 4 11
e 4 14
e 4 17
e 4 19
e 4 23
e 4 25
e 4 27
e 4 31
e 4 37
e 4 40
e 4 44
e 4 45
e 4 50
e 5 6
e 5 7
e 5 9
e 5 10
e 5 11
e 5 12
e 5 13
e 5 14
e 5 19
e 5 23
e 5 24
e 5 25
e 5 28
e 5 32
e 5 43
e 6 7
e 6 8
e 6 13
e 6 16
e 6 18
e 6 22
e 6 23
e 6 27
e 6 32
e 6 33
e 6 36
e 6 37
e 6 38
e 6 48
e 7 9
e 7 11
e 7 12
e 7 16
e 7 18
e 7 24
e 7 25
e 7 27
e 7 28
e 7 30
e 7 37
e 7 46
e 7 48
e 8 14
e 8 19
e 8 20
e 8 21
e 8 22
e 8 24
e 8 33
e 8 35
e 8 36
e 8 38
e 8 41
e 8 47
e 9 10
e 9 15
e 9 17
e 9 20
e 9 22
e 9 28
e 9 29
e 9 45
e 10 14
e 10 16
e 10 19
e 10 23
e 10 27
e 10 28
e 10 31
e 10 32
e 10 36
e 11 12
e 11 17
e 11 21
e 11 26
e 11 35
e 11 40
e 12 13
e 12 24
e 12 35
e 12 38
e 12 42
e 12 48
e 13 17
e 13 18
e 13 21
e 13 31
e 13 41
e 13 44
e 13 45
e 14 15
e 14 16
e 14 18
e 14 19
e 14 20
e 14 25
e 15 17
e 15 18
e 15 20
e 15 21
e 15 22
e 15 42
e 16 23
e 16 26
e 16 33
e 16 39
e 16 41
e 16 42
e 17 23
e 17 29
e 17 34
e 17 39
e 17 47
e 18 26
e 18 30
e 18 31
e 18 46
e 18 50
e 19 40
e 19 41
e 19 44
e 20 21
e 20 42
e 20 43
e 20 49
e 21 36
e 21 39
e 21 48
e 21 49
e 22 40
e 22 50
e 23 47
e 24 29
e 24 34
e 24 46
e 25 35
e 25 42
e 25 44
e 26 27
e 26 36
e 26 47
e 26 50
e 28 41
e 28 43
e 29 39
e 29 48
e 30 35
e 30 40
e 30 43
e 31 43
e 31 49
e 32 33
e 33 45
e 34 39
e 36 46
n 12 8
n 18 6
n 19 10
n 20 2
n 22 7
n 23 3
n 24 8
n 25 9
n 26 6
n 27 6
n 28 5
n 30 6
n 32 1
n 33 1
n 36 6
n 37 8
n 39 4
n 45 1
n 48 8
n 49 2
